NAME: tsp_17
COMMENT: Random TSP instance
TYPE: TSP
DIMENSION: 50
EDGE_WEIGHT_TYPE: EUC_2D
NODE_COORD_SECTION
1 750 165
2 693 959
3 684 920
4 200 967
5 665 687
6 786 379
7 557 672
8 800 571
9 847 235
10 12 839
11 172 275
12 880 675
13 359 133
14 743 782
15 653 832
16 700 407
17 642 755
18 171 719
19 190 831
20 361 253
21 74 682
22 756 84
23 59 757
24 945 750
25 353 781
26 586 30
27 444 822
28 187 372
29 511 245
30 129 737
31 324 211
32 380 583
33 438 277
34 497 880
35 373 358
36 839 476
37 707 458
38 329 475
39 622 951
40 572 198
41 197 257
42 123 72
43 819 184
44 307 872
45 278 233
46 731 772
47 622 358
48 343 370
49 339 595
50 12 841
